qbf_easy_train/easy_2036_SAT.qdimacs
p cnf 26 68
a 9 11 22 0
e 1 2 3 4 5 6 7 8 10 12 13 14 15 16 17 18 19 20 21 23 24 25 26 0
-4 -2 0
-4 3 0
2 -3 4 0
1 4 -5 0
-1 -4 -5 0
1 -4 5 0
-1 4 5 0
6 7 -8 0
-6 -7 -8 0
6 -7 8 0
-6 7 8 0
9 3 0
9 -8 0
-3 8 -9 0
11 4 0
11 -10 0
-4 10 -11 0
-9 -11 -12 0
9 11 -12 0
-9 11 12 0
9 -11 12 0
-14 6 0
-14 13 0
-6 -13 14 0
15 12 0
15 14 0
-12 -14 -15 0
-17 6 0
-17 6 0
-6 17 0
-18 -10 0
-18 17 0
10 -17 18 0
16 18 -19 0
-16 -18 -19 0
16 -18 19 0
-16 18 19 0
3 17 -20 0
-3 -17 -20 0
3 -17 20 0
-3 17 20 0
-21 19 0
-21 -20 0
-19 20 21 0
-15 21 -22 0
15 -21 -22 0
-15 -21 22 0
15 21 22 0
-7 -6 -23 0
7 6 -23 0
-7 6 23 0
7 -6 23 0
24 23 0
24 -6 0
-23 6 -24 0
25 22 0
25 -24 0
-22 24 -25 0
26 5 0
26 -25 0
-5 25 -26 0
4 -12 -24 0
18 21 -25 -17 9 3 0
14 -9 -17 -20 -24 26 0
3 20 -16 0
26 -23 -14 0
-5 16 -10 -21 0
26 0
