sat_easy_train/easy_2036_SAT.dimacs
p cnf 92 293
-4 -3 0
-4 2 0
3 -2 4 0
-2 -4 -5 0
2 4 -5 0
-2 4 5 0
2 -4 5 0
-7 6 0
-7 4 0
-6 -4 7 0
-9 7 0
-9 8 0
-7 -8 9 0
-10 -5 0
-10 -9 0
5 9 10 0
-11 -10 0
-11 -5 0
10 5 11 0
1 11 -12 0
-1 -11 -12 0
1 -11 12 0
-1 11 12 0
14 -13 0
14 1 0
13 -1 -14 0
-14 -15 -16 0
14 15 -16 0
-14 15 16 0
14 -15 16 0
16 -9 -17 0
-16 9 -17 0
16 9 17 0
-16 -9 17 0
18 -12 0
18 17 0
12 -17 -18 0
20 -14 0
20 6 0
14 -6 -20 0
-21 -19 0
-21 -20 0
19 20 21 0
-22 3 -23 0
22 -3 -23 0
-22 -3 23 0
22 3 23 0
-24 22 0
-24 23 0
-22 -23 24 0
25 -21 0
25 -24 0
21 24 -25 0
26 -18 0
26 25 0
18 -25 -26 0
14 16 -27 0
-14 -16 -27 0
14 -16 27 0
-14 16 27 0
28 27 0
28 -15 0
-27 15 -28 0
-3 29 -30 0
3 -29 -30 0
-3 -29 30 0
3 29 30 0
-32 30 0
-32 31 0
-30 -31 32 0
-33 -9 0
-33 32 0
9 -32 33 0
-34 -28 0
-34 33 0
28 -33 34 0
35 -13 0
35 -15 0
13 15 -35 0
36 -35 0
36 -24 0
35 24 -36 0
37 36 0
37 -16 0
-36 16 -37 0
-9 -16 -39 0
9 16 -39 0
-9 16 39 0
9 -16 39 0
40 -2 0
40 39 0
2 -39 -40 0
-24 -14 -41 0
24 14 -41 0
-24 14 41 0
24 -14 41 0
-40 41 -42 0
40 -41 -42 0
-40 -41 42 0
40 41 42 0
43 -38 0
43 -42 0
38 42 -43 0
44 -37 0
44 43 0
37 -43 -44 0
-23 11 -45 0
23 -11 -45 0
-23 -11 45 0
23 11 45 0
47 -45 0
47 -46 0
45 46 -47 0
-48 -1 0
-48 6 0
1 -6 48 0
-48 22 -49 0
48 -22 -49 0
-48 -22 49 0
48 22 49 0
49 -38 -50 0
-49 38 -50 0
49 38 50 0
-49 -38 50 0
-50 -31 -51 0
50 31 -51 0
-50 31 51 0
50 -31 51 0
-53 -22 0
-53 52 0
22 -52 53 0
-53 3 -54 0
53 -3 -54 0
-53 -3 54 0
53 3 54 0
55 -54 0
55 6 0
54 -6 -55 0
51 -55 -56 0
-51 55 -56 0
51 55 56 0
-51 -55 56 0
47 56 -57 0
-47 -56 -57 0
47 -56 57 0
-47 56 57 0
-58 -46 0
-58 -35 0
46 35 58 0
-59 57 0
-59 58 0
-57 -58 59 0
-60 44 0
-60 -59 0
-44 59 60 0
-61 23 0
-61 30 0
-23 -30 61 0
-60 -61 -62 0
60 61 -62 0
-60 61 62 0
60 -61 62 0
-63 -34 0
-63 62 0
34 -62 63 0
65 64 0
65 31 0
-64 -31 -65 0
-66 -29 0
-66 -65 0
29 65 66 0
-35 -2 -67 0
35 2 -67 0
-35 2 67 0
35 -2 67 0
-68 20 0
-68 67 0
-20 -67 68 0
-69 -29 0
-69 68 0
29 -68 69 0
70 -66 0
70 69 0
66 -69 -70 0
-63 70 -71 0
63 -70 -71 0
-63 -70 71 0
63 70 71 0
26 -71 -72 0
-26 71 -72 0
26 71 72 0
-26 -71 72 0
-74 -73 0
-74 -51 0
73 51 74 0
10 35 -75 0
-10 -35 -75 0
10 -35 75 0
-10 35 75 0
-76 74 0
-76 75 0
-74 -75 76 0
77 -4 0
77 66 0
4 -66 -77 0
76 77 -78 0
-76 -77 -78 0
76 -77 78 0
-76 77 78 0
79 -32 0
79 -69 0
32 69 -79 0
-80 -47 0
-80 16 0
47 -16 80 0
81 -79 0
81 80 0
79 -80 -81 0
-82 -78 0
-82 81 0
78 -81 82 0
83 -19 0
83 47 0
19 -47 -83 0
-83 -10 -84 0
83 10 -84 0
-83 10 84 0
83 -10 84 0
85 -19 0
85 -2 0
19 2 -85 0
-86 -9 0
-86 8 0
9 -8 86 0
87 85 0
87 -86 0
-85 86 -87 0
88 -84 0
88 -87 0
84 87 -88 0
-67 36 -89 0
67 -36 -89 0
-67 -36 89 0
67 36 89 0
-88 -89 -90 0
88 89 -90 0
-88 89 90 0
88 -89 90 0
-91 82 0
-91 -90 0
-82 90 91 0
-92 -72 0
-92 -91 0
72 91 92 0
5 -77 0
-3 40 -63 0
70 -32 36 33 -7 0
-56 -23 45 0
9 72 73 7 0
-40 -59 88 -51 5 -24 0
26 75 0
7 -2 23 -38 6 -32 0
68 27 0
-59 -83 -66 -23 -37 0
-27 92 40 -85 71 76 0
65 -46 56 23 0
-78 64 -41 -66 -18 0
-18 -28 -32 -68 0
28 66 86 0
35 87 60 -29 0
15 -32 63 0
47 51 0
43 86 -76 0
-46 -79 0
-18 54 22 24 0
-5 69 -58 -53 51 0
29 18 35 54 -74 0
12 90 65 -22 -5 -38 0
-76 16 80 -61 0
-31 -55 0
-19 -16 72 -89 -23 -67 0
23 15 -6 34 -42 30 0
23 -80 21 -72 -48 0
-43 79 0
-57 -62 5 0
-10 -11 0
83 -34 48 -19 -50 0
-34 -9 -54 -25 0
24 -37 -58 -13 9 0
17 -26 -45 12 0
21 -50 -84 -19 28 0
84 -34 -91 0
92 0
